qbf_easy_train/easy_1632_SAT.qdimacs
p cnf 18 37
a 8 9 12 0
e 1 2 3 4 5 6 7 10 11 13 14 15 16 17 18 0
-3 -1 0
-3 -2 0
1 2 3 0
-7 -5 0
-7 6 0
5 -6 7 0
4 -7 -8 0
-4 7 -8 0
4 7 8 0
-4 -7 8 0
-10 -8 0
-10 -9 0
8 9 10 0
-3 -10 -11 0
3 10 -11 0
-3 10 11 0
3 -10 11 0
14 12 0
14 13 0
-12 -13 -14 0
-15 -11 0
-15 14 0
11 -14 15 0
1 5 -16 0
-1 -5 -16 0
1 -5 16 0
-1 5 16 0
17 -16 0
17 -2 0
16 2 -17 0
18 -15 0
18 -17 0
15 17 -18 0
-15 2 10 -16 0
11 2 5 0
3 -10 -15 1 6 18 0
18 0
