sat_easy_train/easy_1632_SAT.dimacs
p cnf 120 395
1 -2 0
-1 -2 0
-5 3 0
-5 4 0
-3 -4 5 0
-5 6 -7 0
5 -6 -7 0
-5 -6 7 0
5 6 7 0
-10 -8 0
-10 9 0
8 -9 10 0
11 -7 0
11 -10 0
7 10 -11 0
13 8 0
13 12 0
-8 -12 -13 0
15 -14 0
15 10 0
14 -10 -15 0
13 15 -16 0
-13 -15 -16 0
13 -15 16 0
-13 15 16 0
-17 11 0
-17 16 0
-11 -16 17 0
2 -17 -18 0
-2 17 -18 0
2 17 18 0
-2 -17 18 0
20 -19 0
20 -6 0
19 6 -20 0
-22 -19 0
-22 21 0
19 -21 22 0
-23 20 0
-23 -22 0
-20 22 23 0
23 -24 0
-23 -24 0
-25 -24 0
-25 -23 0
24 23 25 0
-3 25 -26 0
3 -25 -26 0
-3 -25 26 0
3 25 26 0
27 -18 0
27 -26 0
18 26 -27 0
21 -28 -29 0
-21 28 -29 0
21 28 29 0
-21 -28 29 0
30 -29 0
30 -21 0
29 21 -30 0
-31 30 0
-31 -9 0
-30 9 31 0
33 21 0
33 32 0
-21 -32 -33 0
34 31 0
34 33 0
-31 -33 -34 0
-35 -24 0
-35 11 0
24 -11 35 0
-36 7 -37 0
36 -7 -37 0
-36 -7 37 0
36 7 37 0
38 37 0
38 -10 0
-37 10 -38 0
-35 -38 -39 0
35 38 -39 0
-35 38 39 0
35 -38 39 0
-40 -3 0
-40 8 0
3 -8 40 0
-41 -40 0
-41 9 0
40 -9 41 0
-42 39 0
-42 -41 0
-39 41 42 0
34 -42 -43 0
-34 42 -43 0
34 42 43 0
-34 -42 43 0
28 11 -44 0
-28 -11 -44 0
28 -11 44 0
-28 11 44 0
-45 44 0
-45 -8 0
-44 8 45 0
46 -29 0
46 -45 0
29 45 -46 0
-48 -47 0
-48 -32 0
47 32 48 0
28 -48 -49 0
-28 48 -49 0
28 48 49 0
-28 -48 49 0
-50 -8 0
-50 36 0
8 -36 50 0
51 50 0
51 5 0
-50 -5 -51 0
-52 49 0
-52 -51 0
-49 51 52 0
53 52 0
53 -28 0
-52 28 -53 0
-54 7 0
-54 -53 0
-7 53 54 0
55 46 0
55 54 0
-46 -54 -55 0
19 23 -56 0
-19 -23 -56 0
19 -23 56 0
-19 23 56 0
9 28 -57 0
-9 -28 -57 0
9 -28 57 0
-9 28 57 0
-58 56 0
-58 -57 0
-56 57 58 0
-59 37 0
-59 58 0
-37 -58 59 0
-60 59 0
-60 5 0
-59 -5 60 0
-15 -5 -61 0
15 5 -61 0
-15 5 61 0
15 -5 61 0
-61 -14 -62 0
61 14 -62 0
-61 14 62 0
61 -14 62 0
63 -28 0
63 20 0
28 -20 -63 0
-56 -63 -64 0
56 63 -64 0
-56 63 64 0
56 -63 64 0
-65 -64 0
-65 -51 0
64 51 65 0
62 65 -66 0
-62 -65 -66 0
62 -65 66 0
-62 65 66 0
67 -60 0
67 -66 0
60 66 -67 0
21 -44 -68 0
-21 44 -68 0
21 44 68 0
-21 -44 68 0
-68 5 -69 0
68 -5 -69 0
-68 -5 69 0
68 5 69 0
-70 1 0
-70 36 0
-1 -36 70 0
71 -70 0
71 -40 0
70 40 -71 0
69 71 -72 0
-69 -71 -72 0
69 -71 72 0
-69 71 72 0
-73 67 0
-73 72 0
-67 -72 73 0
55 -73 -74 0
-55 73 -74 0
55 73 74 0
-55 -73 74 0
75 -13 0
75 7 0
13 -7 -75 0
76 -10 0
76 75 0
10 -75 -76 0
-3 -22 -77 0
3 22 -77 0
-3 22 77 0
3 -22 77 0
78 76 0
78 -77 0
-76 77 -78 0
-79 -44 0
-79 -1 0
44 1 79 0
8 -29 -80 0
-8 29 -80 0
8 29 80 0
-8 -29 80 0
-81 -80 0
-81 -28 0
80 28 81 0
-79 81 -82 0
79 -81 -82 0
-79 -81 82 0
79 81 82 0
83 78 0
83 82 0
-78 -82 -83 0
84 -16 0
84 -45 0
16 45 -84 0
-85 -50 0
-85 -23 0
50 23 85 0
-86 12 0
-86 -75 0
-12 75 86 0
-86 32 -87 0
86 -32 -87 0
-86 -32 87 0
86 32 87 0
-88 71 0
-88 -40 0
-71 40 88 0
89 87 0
89 -88 0
-87 88 -89 0
-90 -85 0
-90 89 0
85 -89 90 0
-91 84 0
-91 90 0
-84 -90 91 0
14 68 -92 0
-14 -68 -92 0
14 -68 92 0
-14 68 92 0
-93 -12 0
-93 -6 0
12 6 93 0
94 -21 0
94 93 0
21 -93 -94 0
-95 -92 0
-95 94 0
92 -94 95 0
91 95 -96 0
-91 -95 -96 0
91 -95 96 0
-91 95 96 0
97 1 0
97 8 0
-1 -8 -97 0
98 71 0
98 11 0
-71 -11 -98 0
97 -98 -99 0
-97 98 -99 0
97 98 99 0
-97 -98 99 0
100 47 0
100 -10 0
-47 10 -100 0
99 100 -101 0
-99 -100 -101 0
99 -100 101 0
-99 100 101 0
-102 -96 0
-102 -101 0
96 101 102 0
103 83 0
103 -102 0
-83 102 -103 0
-74 103 -104 0
74 -103 -104 0
-74 -103 104 0
74 103 104 0
-24 105 -106 0
24 -105 -106 0
-24 -105 106 0
24 105 106 0
107 -104 0
107 106 0
104 -106 -107 0
-43 -107 -108 0
43 107 -108 0
-43 107 108 0
43 -107 108 0
110 -12 0
110 -70 0
12 70 -110 0
111 109 0
111 110 0
-109 -110 -111 0
112 -69 0
112 -111 0
69 111 -112 0
113 50 0
113 -71 0
-50 71 -113 0
114 -7 0
114 20 0
7 -20 -114 0
115 113 0
115 -114 0
-113 114 -115 0
-116 51 0
-116 5 0
-51 -5 116 0
-117 115 0
-117 -116 0
-115 116 117 0
112 -117 -118 0
-112 117 -118 0
112 117 118 0
-112 -117 118 0
119 -108 0
119 -118 0
108 118 -119 0
27 -119 -120 0
-27 119 -120 0
27 119 120 0
-27 -119 120 0
-39 -105 -57 -119 97 -85 0
116 -97 -44 0
-119 -48 112 0
29 11 -8 55 79 -2 0
61 95 62 23 0
-112 22 69 54 0
-42 -82 -101 -91 0
53 97 -38 0
6 101 -79 113 0
-117 -30 -65 42 0
15 32 94 8 -69 -62 0
-84 52 110 0
12 105 0
-120 94 88 7 113 -59 0
64 -94 0
77 -55 -39 -78 0
98 -113 0
-97 -60 -6 37 3 39 0
-16 -28 -112 5 20 -83 0
27 4 1 61 0
79 -84 50 -32 48 0
13 -94 -79 -23 0
61 86 -14 -97 113 0
35 -18 24 -99 61 -90 0
96 -86 68 -85 -11 0
62 27 10 71 0
-2 92 -88 86 1 0
23 103 28 -36 -62 0
50 116 -41 49 0
118 49 -71 -92 -98 0
-63 99 -38 0
2 79 -21 31 0
-58 -43 35 -115 100 110 0
-2 98 -35 0
78 69 -97 26 0
115 87 76 0
44 73 117 0
-74 -6 119 -113 15 111 0
119 21 71 0
-14 83 5 0
-34 81 0
-22 81 15 -116 0
-42 78 -110 82 0
53 -93 -105 -89 0
42 34 0
-17 -74 -62 -26 0
-108 -18 -15 -79 113 0
83 -44 22 98 -118 117 0
47 -1 101 0
-84 -93 -52 101 -89 0
82 -49 -48 -44 0
120 0
